g9 5 1 0 86 20081213 0 4 0 500	# problem tmp
 87 86 1 8 46	# vars, constraints, objectives, ranges, eqns
 28 0 32 0	# nonlinear constrs, objs; ccons: lin, nonlin
 0 0	# network constraints: nonlinear, linear
 32 0 0	# nonlinear vars in constraints, objectives, both
 0 0 0 1	# linear network variables; functions; arith, flags
 0 0 0 0 0	# discrete variables: binary, integer, nonlinear (b,c,o)
 363 9	# nonzeros in Jacobian, gradients
 0 0	# max name lengths: constraints, variables
 0 80 0 46 0	# common exprs: b,c,o,c1,o1
V87 1 0
0 0.25
n0.375
V88 1 0
0 0.5
n0.25
V89 1 0
0 0.75
n0.125
V90 1 0
1 0.25
n0.375
V91 1 0
1 0.5
n0.25
V92 1 0
1 0.75
n0.125
V93 1 0
1 1
n0
V94 1 0
2 0.25
n0.375
V95 1 0
2 0.5
n0.25
V96 1 0
2 0.75
n0.125
V97 1 0
2 1
n0
V98 1 0
3 0.25
n0.375
V99 1 0
3 0.5
n0.25
V100 1 0
3 0.75
n0.125
V101 1 0
3 1
n0
V102 1 0
4 0.25
n0.375
V103 1 0
4 0.5
n0.25
V104 1 0
4 0.75
n0.125
V105 1 0
4 1
n0
V106 1 0
5 0.25
n0.375
V107 1 0
5 0.5
n0.25
V108 1 0
5 0.75
n0.125
V109 1 0
5 1
n0
V110 1 0
6 0.25
n0.375
V111 1 0
6 0.5
n0.25
V112 1 0
6 0.75
n0.125
V113 1 0
6 1
n0
V114 1 0
7 0.25
n0.375
V115 1 0
7 0.5
n0.25
V116 1 0
7 0.75
n0.125
V117 1 0
8 0.25
n0.375
V118 1 0
8 0.5
n0.25
V119 1 0
1 0.03125
n-0.015625
V120 1 0
1 0.03125
n-0.015625
V121 1 0
1 0.03125
n-0.015625
V122 1 0
1 0.03125
n-0.015625
V123 1 0
2 0.03125
n-0.015625
V124 1 0
1 0.03125
n-0.015625
V125 1 0
2 0.03125
n-0.015625
V126 1 0
1 0.03125
n-0.015625
V127 1 0
2 0.03125
n-0.015625
V128 1 0
1 0.03125
n-0.015625
V129 1 0
2 0.03125
n-0.015625
V130 1 0
3 0.03125
n-0.015625
V131 1 0
2 0.03125
n-0.015625
V132 1 0
3 0.03125
n-0.015625
V133 1 0
2 0.03125
n-0.015625
V134 1 0
3 0.03125
n-0.015625
V135 1 0
2 0.03125
n-0.015625
V136 1 0
3 0.03125
n-0.015625
V137 1 0
4 0.03125
n-0.015625
V138 1 0
3 0.03125
n-0.015625
V139 1 0
4 0.03125
n-0.015625
V140 1 0
3 0.03125
n-0.015625
V141 1 0
4 0.03125
n-0.015625
V142 1 0
3 0.03125
n-0.015625
V143 1 0
4 0.03125
n-0.015625
V144 1 0
5 0.03125
n-0.015625
V145 1 0
4 0.03125
n-0.015625
V146 1 0
5 0.03125
n-0.015625
V147 1 0
4 0.03125
n-0.015625
V148 1 0
5 0.03125
n-0.015625
V149 1 0
4 0.03125
n-0.015625
V150 1 0
5 0.03125
n-0.015625
V151 1 0
6 0.03125
n-0.015625
V152 1 0
5 0.03125
n-0.015625
V153 1 0
6 0.03125
n-0.015625
V154 1 0
5 0.03125
n-0.015625
V155 1 0
6 0.03125
n-0.015625
V156 1 0
5 0.03125
n-0.015625
V157 1 0
6 0.03125
n-0.015625
V158 1 0
7 0.03125
n-0.015625
V159 1 0
6 0.03125
n-0.015625
V160 1 0
7 0.03125
n-0.015625
V161 1 0
6 0.03125
n-0.015625
V162 1 0
7 0.03125
n-0.015625
V163 1 0
6 0.03125
n-0.015625
V164 1 0
7 0.03125
n-0.015625
V165 1 0
7 0.03125
n-0.015625
V166 1 0
7 0.03125
n-0.015625
V167 1 1
0 0.03125
n-0.015625
V168 0 1
o54
3
o3
o54
3
o2
o0
n0.015625
o5
o0
n-0.5
v90
n2
v9
o2
n-0.015625
v10
o16
o2
n-0.025
o5
o0
n-0.5
v90
n2
o2
n2
v122
o3
o0
o2
o0
n0.015625
o5
o1
v87
v90
n2
v9
o2
o54
3
n-0.015625
o16
o5
o1
v87
v90
n2
o2
o1
v87
v90
o1
n0.5
v90
v10
o2
n2
v119
o3
o2
o5
o0
n-0.5
v87
n2
v9
o2
n2
v167
C0
o16
v168
V169 1 2
0 0.03125
n-0.015625
V170 0 2
o54
6
o3
o0
o2
o1
o54
3
n0.015625
o5
o1
v87
v90
n2
o5
o1
n0.5
v90
n2
o2
o2
n2
o1
v87
v90
o1
n0.5
v90
v10
o2
o54
3
n-0.015625
o16
o5
o1
v87
v90
n2
o2
o1
v87
v90
o1
n0.5
v90
v9
o2
n2
v119
o3
o54
3
o2
o1
o54
3
n0.015625
o5
o1
v94
v90
n2
o5
o1
v91
v90
n2
o2
o2
n2
o1
v94
v90
o1
v91
v90
v10
o2
o54
3
n-0.015625
o16
o5
o1
v94
v90
n2
o2
o1
v94
v90
o1
v91
v90
v11
o2
o0
o16
o5
o1
v91
v90
n2
o2
o1
v94
v90
o1
v91
v90
v13
o2
n2
v124
o3
o0
o2
o0
n0.015625
o5
o1
v88
v91
n2
v10
o2
o54
3
n-0.015625
o16
o5
o1
v88
v91
n2
o2
o1
v88
v91
o1
v90
v91
v11
o2
n2
v120
o3
o0
o2
n0.015625
v10
o2
n-0.015625
v9
o2
n2
v122
o3
o2
o5
o1
v88
v87
n2
v10
o2
n2
v169
o3
o54
3
o2
o5
o1
n0.5
v94
n2
v10
o16
o2
n-0.025
o2
o1
v90
v94
o1
n0.5
v94
o2
o0
o16
o5
o1
n0.5
v94
n2
o2
o1
v90
v94
o1
n0.5
v94
v13
o2
n2
v123
C1
o16
v170
V171 1 3
0 0.03125
n-0.015625
V172 0 3
o54
6
o3
o0
o2
o1
o54
3
n0.015625
o5
o1
v88
v91
n2
o5
o1
v90
v91
n2
o2
o2
n2
o1
v88
v91
o1
v90
v91
v11
o2
o54
3
n-0.015625
o16
o5
o1
v88
v91
n2
o2
o1
v88
v91
o1
v90
v91
v10
o2
n2
v120
o3
o54
3
o2
o1
o54
3
n0.015625
o5
o1
v95
v91
n2
o5
o1
v92
v91
n2
o2
o2
n2
o1
v95
v91
o1
v92
v91
v11
o2
o54
3
n-0.015625
o16
o5
o1
v95
v91
n2
o2
o1
v95
v91
o1
v92
v91
v12
o2
o0
o16
o5
o1
v92
v91
n2
o2
o1
v95
v91
o1
v92
v91
v14
o2
n2
v126
o3
o0
o2
o0
n0.015625
o5
o1
v89
v92
n2
v11
o2
o54
3
n-0.015625
o16
o5
o1
v89
v92
n2
o2
o1
v89
v92
o1
v91
v92
v12
o2
n2
v121
o3
o54
3
o2
o0
n0.015625
o5
o1
v94
v90
n2
v11
o2
o54
3
n-0.015625
o16
o5
o1
v94
v90
n2
o2
o1
v94
v90
o1
v91
v90
v10
o16
o2
o2
o1
v94
v90
o1
v91
v90
v13
o2
n2
v124
o3
o2
o5
o1
v89
v88
n2
v11
o2
n2
v171
o3
o54
3
o2
o5
o1
v94
v95
n2
v11
o16
o2
o2
o1
v91
v95
o1
v94
v95
v13
o2
o0
o16
o5
o1
v94
v95
n2
o2
o1
v91
v95
o1
v94
v95
v14
o2
n2
v125
C2
o16
v172
V173 1 4
0 1
n0
V174 1 4
0 0.03125
n-0.015625
V175 1 4
1 0.03125
n-0.015625
V176 0 4
o54
6
o3
o0
o2
o1
o54
3
n0.015625
o5
o1
v89
v92
n2
o5
o1
v91
v92
n2
o2
o2
n2
o1
v89
v92
o1
v91
v92
v12
o2
o54
3
n-0.015625
o16
o5
o1
v89
v92
n2
o2
o1
v89
v92
o1
v91
v92
v11
o2
n2
v121
o3
o0
o2
o1
o54
3
n0.015625
o5
o1
v96
v92
n2
o5
o1
v93
v92
n2
o2
o2
n2
o1
v96
v92
o1
v93
v92
v12
o2
o0
o16
o5
o1
v93
v92
n2
o2
o1
v96
v92
o1
v93
v92
v15
o2
n2
v128
o3
o2
o0
n0.015625
o5
o1
v173
v93
n2
v12
o2
n2
v175
o3
o54
3
o2
o0
n0.015625
o5
o1
v95
v91
n2
v12
o2
o54
3
n-0.015625
o16
o5
o1
v95
v91
n2
o2
o1
v95
v91
o1
v92
v91
v11
o16
o2
o2
o1
v95
v91
o1
v92
v91
v14
o2
n2
v126
o3
o2
o5
o1
v173
v89
n2
v12
o2
n2
v174
o3
o54
3
o2
o5
o1
v95
v96
n2
v12
o16
o2
o2
o1
v92
v96
o1
v95
v96
v14
o2
o0
o16
o5
o1
v95
v96
n2
o2
o1
v92
v96
o1
v95
v96
v15
o2
n2
v127
C3
o16
v176
V177 0 5
o54
3
o3
o54
3
o2
n-0.025
o0
n0.015625
o5
o0
n-0.5
v94
n2
o2
n-0.015625
v13
o16
o2
n-0.025
o5
o0
n-0.5
v94
n2
o2
n2
v129
o3
o54
3
o2
n-0.025
o0
n0.015625
o5
o1
v90
v94
n2
o2
o54
3
n-0.015625
o16
o5
o1
v90
v94
n2
o2
o1
v90
v94
o1
n0.5
v94
v13
o16
o2
o2
o1
v90
v94
o1
n0.5
v94
v10
o2
n2
v123
o3
o0
o2
n-0.025
o5
o0
n-0.5
v90
n2
o16
o2
o5
o0
n-0.5
v90
n2
v9
o2
n2
v122
C4
o16
v177
V178 0 6
o54
6
o3
o54
3
o2
o1
o54
3
n0.015625
o5
o1
v90
v94
n2
o5
o1
n0.5
v94
n2
o2
o2
n2
o1
v90
v94
o1
n0.5
v94
v13
o2
n-0.025
o54
3
n-0.015625
o16
o5
o1
v90
v94
n2
o2
o1
v90
v94
o1
n0.5
v94
o2
o0
o16
o5
o1
n0.5
v94
n2
o2
o1
v90
v94
o1
n0.5
v94
v10
o2
n2
v123
o3
o54
3
o2
o1
o54
3
n0.015625
o5
o1
v98
v94
n2
o5
o1
v95
v94
n2
o2
o2
n2
o1
v98
v94
o1
v95
v94
v13
o2
o54
3
n-0.015625
o16
o5
o1
v98
v94
n2
o2
o1
v98
v94
o1
v95
v94
v14
o2
o0
o16
o5
o1
v95
v94
n2
o2
o1
v98
v94
o1
v95
v94
v16
o2
n2
v131
o3
o54
3
o2
o0
n0.015625
o5
o1
v91
v95
n2
v13
o2
o54
3
n-0.015625
o16
o5
o1
v91
v95
n2
o2
o1
v91
v95
o1
v94
v95
v14
o16
o2
o2
o1
v91
v95
o1
v94
v95
v11
o2
n2
v125
o3
o0
n0.000390625
o2
n0.015625
v13
o2
n2
v129
o3
o54
3
o2
o5
o1
v91
v90
n2
v13
o16
o2
o2
o1
v94
v90
o1
v91
v90
v11
o2
o0
o16
o5
o1
v91
v90
n2
o2
o1
v94
v90
o1
v91
v90
v10
o2
n2
v124
o3
o54
3
o2
o5
o1
n0.5
v98
n2
v13
o16
o2
n-0.025
o2
o1
v94
v98
o1
n0.5
v98
o2
o0
o16
o5
o1
n0.5
v98
n2
o2
o1
v94
v98
o1
n0.5
v98
v16
o2
n2
v130
C5
o16
v178
V179 0 7
o54
6
o3
o54
3
o2
o1
o54
3
n0.015625
o5
o1
v91
v95
n2
o5
o1
v94
v95
n2
o2
o2
n2
o1
v91
v95
o1
v94
v95
v14
o2
o54
3
n-0.015625
o16
o5
o1
v91
v95
n2
o2
o1
v91
v95
o1
v94
v95
v13
o2
o0
o16
o5
o1
v94
v95
n2
o2
o1
v91
v95
o1
v94
v95
v11
o2
n2
v125
o3
o54
3
o2
o1
o54
3
n0.015625
o5
o1
v99
v95
n2
o5
o1
v96
v95
n2
o2
o2
n2
o1
v99
v95
o1
v96
v95
v14
o2
o54
3
n-0.015625
o16
o5
o1
v99
v95
n2
o2
o1
v99
v95
o1
v96
v95
v15
o2
o0
o16
o5
o1
v96
v95
n2
o2
o1
v99
v95
o1
v96
v95
v17
o2
n2
v133
o3
o54
3
o2
o0
n0.015625
o5
o1
v92
v96
n2
v14
o2
o54
3
n-0.015625
o16
o5
o1
v92
v96
n2
o2
o1
v92
v96
o1
v95
v96
v15
o16
o2
o2
o1
v92
v96
o1
v95
v96
v12
o2
n2
v127
o3
o54
3
o2
o0
n0.015625
o5
o1
v98
v94
n2
v14
o2
o54
3
n-0.015625
o16
o5
o1
v98
v94
n2
o2
o1
v98
v94
o1
v95
v94
v13
o16
o2
o2
o1
v98
v94
o1
v95
v94
v16
o2
n2
v131
o3
o54
3
o2
o5
o1
v92
v91
n2
v14
o16
o2
o2
o1
v95
v91
o1
v92
v91
v12
o2
o0
o16
o5
o1
v92
v91
n2
o2
o1
v95
v91
o1
v92
v91
v11
o2
n2
v126
o3
o54
3
o2
o5
o1
v98
v99
n2
v14
o16
o2
o2
o1
v95
v99
o1
v98
v99
v16
o2
o0
o16
o5
o1
v98
v99
n2
o2
o1
v95
v99
o1
v98
v99
v17
o2
n2
v132
C6
o16
v179
V180 1 8
2 0.03125
n-0.015625
V181 0 8
o54
6
o3
o54
3
o2
o1
o54
3
n0.015625
o5
o1
v92
v96
n2
o5
o1
v95
v96
n2
o2
o2
n2
o1
v92
v96
o1
v95
v96
v15
o2
o54
3
n-0.015625
o16
o5
o1
v92
v96
n2
o2
o1
v92
v96
o1
v95
v96
v14
o2
o0
o16
o5
o1
v95
v96
n2
o2
o1
v92
v96
o1
v95
v96
v12
o2
n2
v127
o3
o0
o2
o1
o54
3
n0.015625
o5
o1
v100
v96
n2
o5
o1
v97
v96
n2
o2
o2
n2
o1
v100
v96
o1
v97
v96
v15
o2
o0
o16
o5
o1
v97
v96
n2
o2
o1
v100
v96
o1
v97
v96
v18
o2
n2
v135
o3
o2
o0
n0.015625
o5
o1
v93
v97
n2
v15
o2
n2
v180
o3
o54
3
o2
o0
n0.015625
o5
o1
v99
v95
n2
v15
o2
o54
3
n-0.015625
o16
o5
o1
v99
v95
n2
o2
o1
v99
v95
o1
v96
v95
v14
o16
o2
o2
o1
v99
v95
o1
v96
v95
v17
o2
n2
v133
o3
o0
o2
o5
o1
v93
v92
n2
v15
o2
o0
o16
o5
o1
v93
v92
n2
o2
o1
v96
v92
o1
v93
v92
v12
o2
n2
v128
o3
o54
3
o2
o5
o1
v99
v100
n2
v15
o16
o2
o2
o1
v96
v100
o1
v99
v100
v17
o2
o0
o16
o5
o1
v99
v100
n2
o2
o1
v96
v100
o1
v99
v100
v18
o2
n2
v134
C7
o16
v181
V182 0 9
o54
4
o3
o54
3
o2
n-0.025
o0
n0.015625
o5
o0
n-0.5
v98
n2
o2
n-0.015625
v16
o16
o2
n-0.025
o5
o0
n-0.5
v98
n2
o2
n2
v136
o3
o54
3
o2
n-0.025
o0
n0.015625
o5
o1
v94
v98
n2
o2
o54
3
n-0.015625
o16
o5
o1
v94
v98
n2
o2
o1
v94
v98
o1
n0.5
v98
v16
o16
o2
o2
o1
v94
v98
o1
n0.5
v98
v13
o2
n2
v130
o3
o0
o2
n-0.025
o5
o0
n-0.5
v94
n2
o16
o2
n-0.025
o5
o0
n-0.5
v94
n2
o2
n2
v129
n-0.006249999999999999
C8
o16
v182
V183 0 10
o54
6
o3
o54
3
o2
o1
o54
3
n0.015625
o5
o1
v94
v98
n2
o5
o1
n0.5
v98
n2
o2
o2
n2
o1
v94
v98
o1
n0.5
v98
v16
o2
n-0.025
o54
3
n-0.015625
o16
o5
o1
v94
v98
n2
o2
o1
v94
v98
o1
n0.5
v98
o2
o0
o16
o5
o1
n0.5
v98
n2
o2
o1
v94
v98
o1
n0.5
v98
v13
o2
n2
v130
o3
o54
3
o2
o1
o54
3
n0.015625
o5
o1
v102
v98
n2
o5
o1
v99
v98
n2
o2
o2
n2
o1
v102
v98
o1
v99
v98
v16
o2
o54
3
n-0.015625
o16
o5
o1
v102
v98
n2
o2
o1
v102
v98
o1
v99
v98
v17
o2
o0
o16
o5
o1
v99
v98
n2
o2
o1
v102
v98
o1
v99
v98
v19
o2
n2
v138
o3
o54
3
o2
o0
n0.015625
o5
o1
v95
v99
n2
v16
o2
o54
3
n-0.015625
o16
o5
o1
v95
v99
n2
o2
o1
v95
v99
o1
v98
v99
v17
o16
o2
o2
o1
v95
v99
o1
v98
v99
v14
o2
n2
v132
o3
o0
n0.000390625
o2
n0.015625
v16
o2
n2
v136
o3
o54
3
o2
o5
o1
v95
v94
n2
v16
o16
o2
o2
o1
v98
v94
o1
v95
v94
v14
o2
o0
o16
o5
o1
v95
v94
n2
o2
o1
v98
v94
o1
v95
v94
v13
o2
n2
v131
o3
o54
3
o2
o5
o1
n0.5
v102
n2
v16
o16
o2
n-0.025
o2
o1
v98
v102
o1
n0.5
v102
o2
o0
o16
o5
o1
n0.5
v102
n2
o2
o1
v98
v102
o1
n0.5
v102
v19
o2
n2
v137
C9
o16
v183
V184 0 11
o54
6
o3
o54
3
o2
o1
o54
3
n0.015625
o5
o1
v95
v99
n2
o5
o1
v98
v99
n2
o2
o2
n2
o1
v95
v99
o1
v98
v99
v17
o2
o54
3
n-0.015625
o16
o5
o1
v95
v99
n2
o2
o1
v95
v99
o1
v98
v99
v16
o2
o0
o16
o5
o1
v98
v99
n2
o2
o1
v95
v99
o1
v98
v99
v14
o2
n2
v132
o3
o54
3
o2
o1
o54
3
n0.015625
o5
o1
v103
v99
n2
o5
o1
v100
v99
n2
o2
o2
n2
o1
v103
v99
o1
v100
v99
v17
o2
o54
3
n-0.015625
o16
o5
o1
v103
v99
n2
o2
o1
v103
v99
o1
v100
v99
v18
o2
o0
o16
o5
o1
v100
v99
n2
o2
o1
v103
v99
o1
v100
v99
v20
o2
n2
v140
o3
o54
3
o2
o0
n0.015625
o5
o1
v96
v100
n2
v17
o2
o54
3
n-0.015625
o16
o5
o1
v96
v100
n2
o2
o1
v96
v100
o1
v99
v100
v18
o16
o2
o2
o1
v96
v100
o1
v99
v100
v15
o2
n2
v134
o3
o54
3
o2
o0
n0.015625
o5
o1
v102
v98
n2
v17
o2
o54
3
n-0.015625
o16
o5
o1
v102
v98
n2
o2
o1
v102
v98
o1
v99
v98
v16
o16
o2
o2
o1
v102
v98
o1
v99
v98
v19
o2
n2
v138
o3
o54
3
o2
o5
o1
v96
v95
n2
v17
o16
o2
o2
o1
v99
v95
o1
v96
v95
v15
o2
o0
o16
o5
o1
v96
v95
n2
o2
o1
v99
v95
o1
v96
v95
v14
o2
n2
v133
o3
o54
3
o2
o5
o1
v102
v103
n2
v17
o16
o2
o2
o1
v99
v103
o1
v102
v103
v19
o2
o0
o16
o5
o1
v102
v103
n2
o2
o1
v99
v103
o1
v102
v103
v20
o2
n2
v139
C10
o16
v184
V185 1 12
3 0.03125
n-0.015625
V186 0 12
o54
6
o3
o54
3
o2
o1
o54
3
n0.015625
o5
o1
v96
v100
n2
o5
o1
v99
v100
n2
o2
o2
n2
o1
v96
v100
o1
v99
v100
v18
o2
o54
3
n-0.015625
o16
o5
o1
v96
v100
n2
o2
o1
v96
v100
o1
v99
v100
v17
o2
o0
o16
o5
o1
v99
v100
n2
o2
o1
v96
v100
o1
v99
v100
v15
o2
n2
v134
o3
o0
o2
o1
o54
3
n0.015625
o5
o1
v104
v100
n2
o5
o1
v101
v100
n2
o2
o2
n2
o1
v104
v100
o1
v101
v100
v18
o2
o0
o16
o5
o1
v101
v100
n2
o2
o1
v104
v100
o1
v101
v100
v21
o2
n2
v142
o3
o2
o0
n0.015625
o5
o1
v97
v101
n2
v18
o2
n2
v185
o3
o54
3
o2
o0
n0.015625
o5
o1
v103
v99
n2
v18
o2
o54
3
n-0.015625
o16
o5
o1
v103
v99
n2
o2
o1
v103
v99
o1
v100
v99
v17
o16
o2
o2
o1
v103
v99
o1
v100
v99
v20
o2
n2
v140
o3
o0
o2
o5
o1
v97
v96
n2
v18
o2
o0
o16
o5
o1
v97
v96
n2
o2
o1
v100
v96
o1
v97
v96
v15
o2
n2
v135
o3
o54
3
o2
o5
o1
v103
v104
n2
v18
o16
o2
o2
o1
v100
v104
o1
v103
v104
v20
o2
o0
o16
o5
o1
v103
v104
n2
o2
o1
v100
v104
o1
v103
v104
v21
o2
n2
v141
C11
o16
v186
V187 0 13
o54
4
o3
o54
3
o2
n-0.025
o0
n0.015625
o5
o0
n-0.5
v102
n2
o2
n-0.015625
v19
o16
o2
n-0.025
o5
o0
n-0.5
v102
n2
o2
n2
v143
o3
o54
3
o2
n-0.025
o0
n0.015625
o5
o1
v98
v102
n2
o2
o54
3
n-0.015625
o16
o5
o1
v98
v102
n2
o2
o1
v98
v102
o1
n0.5
v102
v19
o16
o2
o2
o1
v98
v102
o1
n0.5
v102
v16
o2
n2
v137
o3
o0
o2
n-0.025
o5
o0
n-0.5
v98
n2
o16
o2
n-0.025
o5
o0
n-0.5
v98
n2
o2
n2
v136
n-0.006249999999999999
C12
o16
v187
V188 0 14
o54
6
o3
o54
3
o2
o1
o54
3
n0.015625
o5
o1
v98
v102
n2
o5
o1
n0.5
v102
n2
o2
o2
n2
o1
v98
v102
o1
n0.5
v102
v19
o2
n-0.025
o54
3
n-0.015625
o16
o5
o1
v98
v102
n2
o2
o1
v98
v102
o1
n0.5
v102
o2
o0
o16
o5
o1
n0.5
v102
n2
o2
o1
v98
v102
o1
n0.5
v102
v16
o2
n2
v137
o3
o54
3
o2
o1
o54
3
n0.015625
o5
o1
v106
v102
n2
o5
o1
v103
v102
n2
o2
o2
n2
o1
v106
v102
o1
v103
v102
v19
o2
o54
3
n-0.015625
o16
o5
o1
v106
v102
n2
o2
o1
v106
v102
o1
v103
v102
v20
o2
o0
o16
o5
o1
v103
v102
n2
o2
o1
v106
v102
o1
v103
v102
v22
o2
n2
v145
o3
o54
3
o2
o0
n0.015625
o5
o1
v99
v103
n2
v19
o2
o54
3
n-0.015625
o16
o5
o1
v99
v103
n2
o2
o1
v99
v103
o1
v102
v103
v20
o16
o2
o2
o1
v99
v103
o1
v102
v103
v17
o2
n2
v139
o3
o0
n0.000390625
o2
n0.015625
v19
o2
n2
v143
o3
o54
3
o2
o5
o1
v99
v98
n2
v19
o16
o2
o2
o1
v102
v98
o1
v99
v98
v17
o2
o0
o16
o5
o1
v99
v98
n2
o2
o1
v102
v98
o1
v99
v98
v16
o2
n2
v138
o3
o54
3
o2
o5
o1
n0.5
v106
n2
v19
o16
o2
n-0.025
o2
o1
v102
v106
o1
n0.5
v106
o2
o0
o16
o5
o1
n0.5
v106
n2
o2
o1
v102
v106
o1
n0.5
v106
v22
o2
n2
v144
C13
o16
v188
V189 0 15
o54
6
o3
o54
3
o2
o1
o54
3
n0.015625
o5
o1
v99
v103
n2
o5
o1
v102
v103
n2
o2
o2
n2
o1
v99
v103
o1
v102
v103
v20
o2
o54
3
n-0.015625
o16
o5
o1
v99
v103
n2
o2
o1
v99
v103
o1
v102
v103
v19
o2
o0
o16
o5
o1
v102
v103
n2
o2
o1
v99
v103
o1
v102
v103
v17
o2
n2
v139
o3
o54
3
o2
o1
o54
3
n0.015625
o5
o1
v107
v103
n2
o5
o1
v104
v103
n2
o2
o2
n2
o1
v107
v103
o1
v104
v103
v20
o2
o54
3
n-0.015625
o16
o5
o1
v107
v103
n2
o2
o1
v107
v103
o1
v104
v103
v21
o2
o0
o16
o5
o1
v104
v103
n2
o2
o1
v107
v103
o1
v104
v103
v23
o2
n2
v147
o3
o54
3
o2
o0
n0.015625
o5
o1
v100
v104
n2
v20
o2
o54
3
n-0.015625
o16
o5
o1
v100
v104
n2
o2
o1
v100
v104
o1
v103
v104
v21
o16
o2
o2
o1
v100
v104
o1
v103
v104
v18
o2
n2
v141
o3
o54
3
o2
o0
n0.015625
o5
o1
v106
v102
n2
v20
o2
o54
3
n-0.015625
o16
o5
o1
v106
v102
n2
o2
o1
v106
v102
o1
v103
v102
v19
o16
o2
o2
o1
v106
v102
o1
v103
v102
v22
o2
n2
v145
o3
o54
3
o2
o5
o1
v100
v99
n2
v20
o16
o2
o2
o1
v103
v99
o1
v100
v99
v18
o2
o0
o16
o5
o1
v100
v99
n2
o2
o1
v103
v99
o1
v100
v99
v17
o2
n2
v140
o3
o54
3
o2
o5
o1
v106
v107
n2
v20
o16
o2
o2
o1
v103
v107
o1
v106
v107
v22
o2
o0
o16
o5
o1
v106
v107
n2
o2
o1
v103
v107
o1
v106
v107
v23
o2
n2
v146
C14
o16
v189
V190 1 16
4 0.03125
n-0.015625
V191 0 16
o54
6
o3
o54
3
o2
o1
o54
3
n0.015625
o5
o1
v100
v104
n2
o5
o1
v103
v104
n2
o2
o2
n2
o1
v100
v104
o1
v103
v104
v21
o2
o54
3
n-0.015625
o16
o5
o1
v100
v104
n2
o2
o1
v100
v104
o1
v103
v104
v20
o2
o0
o16
o5
o1
v103
v104
n2
o2
o1
v100
v104
o1
v103
v104
v18
o2
n2
v141
o3
o0
o2
o1
o54
3
n0.015625
o5
o1
v108
v104
n2
o5
o1
v105
v104
n2
o2
o2
n2
o1
v108
v104
o1
v105
v104
v21
o2
o0
o16
o5
o1
v105
v104
n2
o2
o1
v108
v104
o1
v105
v104
v24
o2
n2
v149
o3
o2
o0
n0.015625
o5
o1
v101
v105
n2
v21
o2
n2
v190
o3
o54
3
o2
o0
n0.015625
o5
o1
v107
v103
n2
v21
o2
o54
3
n-0.015625
o16
o5
o1
v107
v103
n2
o2
o1
v107
v103
o1
v104
v103
v20
o16
o2
o2
o1
v107
v103
o1
v104
v103
v23
o2
n2
v147
o3
o0
o2
o5
o1
v101
v100
n2
v21
o2
o0
o16
o5
o1
v101
v100
n2
o2
o1
v104
v100
o1
v101
v100
v18
o2
n2
v142
o3
o54
3
o2
o5
o1
v107
v108
n2
v21
o16
o2
o2
o1
v104
v108
o1
v107
v108
v23
o2
o0
o16
o5
o1
v107
v108
n2
o2
o1
v104
v108
o1
v107
v108
v24
o2
n2
v148
C15
o16
v191
V192 0 17
o54
4
o3
o54
3
o2
n-0.025
o0
n0.015625
o5
o0
n-0.5
v106
n2
o2
n-0.015625
v22
o16
o2
n-0.025
o5
o0
n-0.5
v106
n2
o2
n2
v150
o3
o54
3
o2
n-0.025
o0
n0.015625
o5
o1
v102
v106
n2
o2
o54
3
n-0.015625
o16
o5
o1
v102
v106
n2
o2
o1
v102
v106
o1
n0.5
v106
v22
o16
o2
o2
o1
v102
v106
o1
n0.5
v106
v19
o2
n2
v144
o3
o0
o2
n-0.025
o5
o0
n-0.5
v102
n2
o16
o2
n-0.025
o5
o0
n-0.5
v102
n2
o2
n2
v143
n-0.006249999999999999
C16
o16
v192
V193 0 18
o54
6
o3
o54
3
o2
o1
o54
3
n0.015625
o5
o1
v102
v106
n2
o5
o1
n0.5
v106
n2
o2
o2
n2
o1
v102
v106
o1
n0.5
v106
v22
o2
n-0.025
o54
3
n-0.015625
o16
o5
o1
v102
v106
n2
o2
o1
v102
v106
o1
n0.5
v106
o2
o0
o16
o5
o1
n0.5
v106
n2
o2
o1
v102
v106
o1
n0.5
v106
v19
o2
n2
v144
o3
o54
3
o2
o1
o54
3
n0.015625
o5
o1
v110
v106
n2
o5
o1
v107
v106
n2
o2
o2
n2
o1
v110
v106
o1
v107
v106
v22
o2
o54
3
n-0.015625
o16
o5
o1
v110
v106
n2
o2
o1
v110
v106
o1
v107
v106
v23
o2
o0
o16
o5
o1
v107
v106
n2
o2
o1
v110
v106
o1
v107
v106
v25
o2
n2
v152
o3
o54
3
o2
o0
n0.015625
o5
o1
v103
v107
n2
v22
o2
o54
3
n-0.015625
o16
o5
o1
v103
v107
n2
o2
o1
v103
v107
o1
v106
v107
v23
o16
o2
o2
o1
v103
v107
o1
v106
v107
v20
o2
n2
v146
o3
o0
n0.000390625
o2
n0.015625
v22
o2
n2
v150
o3
o54
3
o2
o5
o1
v103
v102
n2
v22
o16
o2
o2
o1
v106
v102
o1
v103
v102
v20
o2
o0
o16
o5
o1
v103
v102
n2
o2
o1
v106
v102
o1
v103
v102
v19
o2
n2
v145
o3
o54
3
o2
o5
o1
n0.5
v110
n2
v22
o16
o2
n-0.025
o2
o1
v106
v110
o1
n0.5
v110
o2
o0
o16
o5
o1
n0.5
v110
n2
o2
o1
v106
v110
o1
n0.5
v110
v25
o2
n2
v151
C17
o16
v193
V194 0 19
o54
6
o3
o54
3
o2
o1
o54
3
n0.015625
o5
o1
v103
v107
n2
o5
o1
v106
v107
n2
o2
o2
n2
o1
v103
v107
o1
v106
v107
v23
o2
o54
3
n-0.015625
o16
o5
o1
v103
v107
n2
o2
o1
v103
v107
o1
v106
v107
v22
o2
o0
o16
o5
o1
v106
v107
n2
o2
o1
v103
v107
o1
v106
v107
v20
o2
n2
v146
o3
o54
3
o2
o1
o54
3
n0.015625
o5
o1
v111
v107
n2
o5
o1
v108
v107
n2
o2
o2
n2
o1
v111
v107
o1
v108
v107
v23
o2
o54
3
n-0.015625
o16
o5
o1
v111
v107
n2
o2
o1
v111
v107
o1
v108
v107
v24
o2
o0
o16
o5
o1
v108
v107
n2
o2
o1
v111
v107
o1
v108
v107
v26
o2
n2
v154
o3
o54
3
o2
o0
n0.015625
o5
o1
v104
v108
n2
v23
o2
o54
3
n-0.015625
o16
o5
o1
v104
v108
n2
o2
o1
v104
v108
o1
v107
v108
v24
o16
o2
o2
o1
v104
v108
o1
v107
v108
v21
o2
n2
v148
o3
o54
3
o2
o0
n0.015625
o5
o1
v110
v106
n2
v23
o2
o54
3
n-0.015625
o16
o5
o1
v110
v106
n2
o2
o1
v110
v106
o1
v107
v106
v22
o16
o2
o2
o1
v110
v106
o1
v107
v106
v25
o2
n2
v152
o3
o54
3
o2
o5
o1
v104
v103
n2
v23
o16
o2
o2
o1
v107
v103
o1
v104
v103
v21
o2
o0
o16
o5
o1
v104
v103
n2
o2
o1
v107
v103
o1
v104
v103
v20
o2
n2
v147
o3
o54
3
o2
o5
o1
v110
v111
n2
v23
o16
o2
o2
o1
v107
v111
o1
v110
v111
v25
o2
o0
o16
o5
o1
v110
v111
n2
o2
o1
v107
v111
o1
v110
v111
v26
o2
n2
v153
C18
o16
v194
V195 1 20
5 0.03125
n-0.015625
V196 0 20
o54
6
o3
o54
3
o2
o1
o54
3
n0.015625
o5
o1
v104
v108
n2
o5
o1
v107
v108
n2
o2
o2
n2
o1
v104
v108
o1
v107
v108
v24
o2
o54
3
n-0.015625
o16
o5
o1
v104
v108
n2
o2
o1
v104
v108
o1
v107
v108
v23
o2
o0
o16
o5
o1
v107
v108
n2
o2
o1
v104
v108
o1
v107
v108
v21
o2
n2
v148
o3
o0
o2
o1
o54
3
n0.015625
o5
o1
v112
v108
n2
o5
o1
v109
v108
n2
o2
o2
n2
o1
v112
v108
o1
v109
v108
v24
o2
o0
o16
o5
o1
v109
v108
n2
o2
o1
v112
v108
o1
v109
v108
v27
o2
n2
v156
o3
o2
o0
n0.015625
o5
o1
v105
v109
n2
v24
o2
n2
v195
o3
o54
3
o2
o0
n0.015625
o5
o1
v111
v107
n2
v24
o2
o54
3
n-0.015625
o16
o5
o1
v111
v107
n2
o2
o1
v111
v107
o1
v108
v107
v23
o16
o2
o2
o1
v111
v107
o1
v108
v107
v26
o2
n2
v154
o3
o0
o2
o5
o1
v105
v104
n2
v24
o2
o0
o16
o5
o1
v105
v104
n2
o2
o1
v108
v104
o1
v105
v104
v21
o2
n2
v149
o3
o54
3
o2
o5
o1
v111
v112
n2
v24
o16
o2
o2
o1
v108
v112
o1
v111
v112
v26
o2
o0
o16
o5
o1
v111
v112
n2
o2
o1
v108
v112
o1
v111
v112
v27
o2
n2
v155
C19
o16
v196
V197 0 21
o54
3
o3
o54
3
o2
n-0.025
o0
n0.015625
o5
o0
n-0.5
v110
n2
o2
n-0.015625
v25
o16
o2
o5
o0
n-0.5
v110
n2
v28
o2
n2
v157
o3
o54
3
o2
n-0.025
o0
n0.015625
o5
o1
v106
v110
n2
o2
o54
3
n-0.015625
o16
o5
o1
v106
v110
n2
o2
o1
v106
v110
o1
n0.5
v110
v25
o16
o2
o2
o1
v106
v110
o1
n0.5
v110
v22
o2
n2
v151
o3
o0
o2
n-0.025
o5
o0
n-0.5
v106
n2
o16
o2
n-0.025
o5
o0
n-0.5
v106
n2
o2
n2
v150
C20
o16
v197
V198 0 22
o54
6
o3
o54
3
o2
o1
o54
3
n0.015625
o5
o1
v106
v110
n2
o5
o1
n0.5
v110
n2
o2
o2
n2
o1
v106
v110
o1
n0.5
v110
v25
o2
n-0.025
o54
3
n-0.015625
o16
o5
o1
v106
v110
n2
o2
o1
v106
v110
o1
n0.5
v110
o2
o0
o16
o5
o1
n0.5
v110
n2
o2
o1
v106
v110
o1
n0.5
v110
v22
o2
n2
v151
o3
o54
3
o2
o1
o54
3
n0.015625
o5
o1
v114
v110
n2
o5
o1
v111
v110
n2
o2
o2
n2
o1
v114
v110
o1
v111
v110
v25
o2
o54
3
n-0.015625
o16
o5
o1
v114
v110
n2
o2
o1
v114
v110
o1
v111
v110
v26
o2
o0
o16
o5
o1
v111
v110
n2
o2
o1
v114
v110
o1
v111
v110
v29
o2
n2
v159
o3
o54
3
o2
o0
n0.015625
o5
o1
v107
v111
n2
v25
o2
o54
3
n-0.015625
o16
o5
o1
v107
v111
n2
o2
o1
v107
v111
o1
v110
v111
v26
o16
o2
o2
o1
v107
v111
o1
v110
v111
v23
o2
n2
v153
o3
o0
n0.000390625
o2
n0.015625
v25
o2
n2
v157
o3
o54
3
o2
o5
o1
v107
v106
n2
v25
o16
o2
o2
o1
v110
v106
o1
v107
v106
v23
o2
o0
o16
o5
o1
v107
v106
n2
o2
o1
v110
v106
o1
v107
v106
v22
o2
n2
v152
o3
o54
3
o2
o5
o1
n0.5
v114
n2
v25
o16
o2
o2
o1
v110
v114
o1
n0.5
v114
v28
o2
o0
o16
o5
o1
n0.5
v114
n2
o2
o1
v110
v114
o1
n0.5
v114
v29
o2
n2
v158
C21
o16
v198
V199 0 23
o54
6
o3
o54
3
o2
o1
o54
3
n0.015625
o5
o1
v107
v111
n2
o5
o1
v110
v111
n2
o2
o2
n2
o1
v107
v111
o1
v110
v111
v26
o2
o54
3
n-0.015625
o16
o5
o1
v107
v111
n2
o2
o1
v107
v111
o1
v110
v111
v25
o2
o0
o16
o5
o1
v110
v111
n2
o2
o1
v107
v111
o1
v110
v111
v23
o2
n2
v153
o3
o54
3
o2
o1
o54
3
n0.015625
o5
o1
v115
v111
n2
o5
o1
v112
v111
n2
o2
o2
n2
o1
v115
v111
o1
v112
v111
v26
o2
o54
3
n-0.015625
o16
o5
o1
v115
v111
n2
o2
o1
v115
v111
o1
v112
v111
v27
o2
o0
o16
o5
o1
v112
v111
n2
o2
o1
v115
v111
o1
v112
v111
v30
o2
n2
v161
o3
o54
3
o2
o0
n0.015625
o5
o1
v108
v112
n2
v26
o2
o54
3
n-0.015625
o16
o5
o1
v108
v112
n2
o2
o1
v108
v112
o1
v111
v112
v27
o16
o2
o2
o1
v108
v112
o1
v111
v112
v24
o2
n2
v155
o3
o54
3
o2
o0
n0.015625
o5
o1
v114
v110
n2
v26
o2
o54
3
n-0.015625
o16
o5
o1
v114
v110
n2
o2
o1
v114
v110
o1
v111
v110
v25
o16
o2
o2
o1
v114
v110
o1
v111
v110
v29
o2
n2
v159
o3
o54
3
o2
o5
o1
v108
v107
n2
v26
o16
o2
o2
o1
v111
v107
o1
v108
v107
v24
o2
o0
o16
o5
o1
v108
v107
n2
o2
o1
v111
v107
o1
v108
v107
v23
o2
n2
v154
o3
o54
3
o2
o5
o1
v114
v115
n2
v26
o16
o2
o2
o1
v111
v115
o1
v114
v115
v29
o2
o0
o16
o5
o1
v114
v115
n2
o2
o1
v111
v115
o1
v114
v115
v30
o2
n2
v160
C22
o16
v199
V200 1 24
6 0.03125
n-0.015625
V201 0 24
o54
6
o3
o54
3
o2
o1
o54
3
n0.015625
o5
o1
v108
v112
n2
o5
o1
v111
v112
n2
o2
o2
n2
o1
v108
v112
o1
v111
v112
v27
o2
o54
3
n-0.015625
o16
o5
o1
v108
v112
n2
o2
o1
v108
v112
o1
v111
v112
v26
o2
o0
o16
o5
o1
v111
v112
n2
o2
o1
v108
v112
o1
v111
v112
v24
o2
n2
v155
o3
o0
o2
o1
o54
3
n0.015625
o5
o1
v116
v112
n2
o5
o1
v113
v112
n2
o2
o2
n2
o1
v116
v112
o1
v113
v112
v27
o2
o0
o16
o5
o1
v113
v112
n2
o2
o1
v116
v112
o1
v113
v112
v31
o2
n2
v163
o3
o2
o0
n0.015625
o5
o1
v109
v113
n2
v27
o2
n2
v200
o3
o54
3
o2
o0
n0.015625
o5
o1
v115
v111
n2
v27
o2
o54
3
n-0.015625
o16
o5
o1
v115
v111
n2
o2
o1
v115
v111
o1
v112
v111
v26
o16
o2
o2
o1
v115
v111
o1
v112
v111
v30
o2
n2
v161
o3
o0
o2
o5
o1
v109
v108
n2
v27
o2
o0
o16
o5
o1
v109
v108
n2
o2
o1
v112
v108
o1
v109
v108
v24
o2
n2
v156
o3
o54
3
o2
o5
o1
v115
v116
n2
v27
o16
o2
o2
o1
v112
v116
o1
v115
v116
v30
o2
o0
o16
o5
o1
v115
v116
n2
o2
o1
v112
v116
o1
v115
v116
v31
o2
n2
v162
C23
o16
v201
V202 0 25
o54
3
o3
o0
o2
o0
n0.015625
o5
o0
n-0.5
v114
n2
v28
o2
n-0.015625
v29
o2
n2
v164
o3
o54
3
o2
o0
n0.015625
o5
o1
v110
v114
n2
v28
o2
o54
3
n-0.015625
o16
o5
o1
v110
v114
n2
o2
o1
v110
v114
o1
n0.5
v114
v29
o16
o2
o2
o1
v110
v114
o1
n0.5
v114
v25
o2
n2
v158
o3
o0
o2
o5
o0
n-0.5
v110
n2
v28
o16
o2
n-0.025
o5
o0
n-0.5
v110
n2
o2
n2
v157
C24
o16
v202
V203 1 26
8 0.03125
n-0.015625
V204 0 26
o54
6
o3
o54
3
o2
o1
o54
3
n0.015625
o5
o1
v110
v114
n2
o5
o1
n0.5
v114
n2
o2
o2
n2
o1
v110
v114
o1
n0.5
v114
v29
o2
o54
3
n-0.015625
o16
o5
o1
v110
v114
n2
o2
o1
v110
v114
o1
n0.5
v114
v28
o2
o0
o16
o5
o1
n0.5
v114
n2
o2
o1
v110
v114
o1
n0.5
v114
v25
o2
n2
v158
o3
o0
o2
o1
o54
3
n0.015625
o5
o1
v117
v114
n2
o5
o1
v115
v114
n2
o2
o2
n2
o1
v117
v114
o1
v115
v114
v29
o2
o54
3
n-0.015625
o16
o5
o1
v117
v114
n2
o2
o1
v117
v114
o1
v115
v114
v30
o2
n2
v165
o3
o54
3
o2
o0
n0.015625
o5
o1
v111
v115
n2
v29
o2
o54
3
n-0.015625
o16
o5
o1
v111
v115
n2
o2
o1
v111
v115
o1
v114
v115
v30
o16
o2
o2
o1
v111
v115
o1
v114
v115
v26
o2
n2
v160
o3
o0
o2
n0.015625
v29
o2
n-0.015625
v28
o2
n2
v164
o3
o54
3
o2
o5
o1
v111
v110
n2
v29
o16
o2
o2
o1
v114
v110
o1
v111
v110
v26
o2
o0
o16
o5
o1
v111
v110
n2
o2
o1
v114
v110
o1
v111
v110
v25
o2
n2
v159
o3
o2
o5
o1
n0.5
v117
n2
v29
o2
n2
v203
C25
o16
v204
V205 1 27
8 0.03125
n-0.015625
V206 0 27
o54
6
o3
o54
3
o2
o1
o54
3
n0.015625
o5
o1
v111
v115
n2
o5
o1
v114
v115
n2
o2
o2
n2
o1
v111
v115
o1
v114
v115
v30
o2
o54
3
n-0.015625
o16
o5
o1
v111
v115
n2
o2
o1
v111
v115
o1
v114
v115
v29
o2
o0
o16
o5
o1
v114
v115
n2
o2
o1
v111
v115
o1
v114
v115
v26
o2
n2
v160
o3
o0
o2
o1
o54
3
n0.015625
o5
o1
v118
v115
n2
o5
o1
v116
v115
n2
o2
o2
n2
o1
v118
v115
o1
v116
v115
v30
o2
o54
3
n-0.015625
o16
o5
o1
v118
v115
n2
o2
o1
v118
v115
o1
v116
v115
v31
o2
n2
v166
o3
o54
3
o2
o0
n0.015625
o5
o1
v112
v116
n2
v30
o2
o54
3
n-0.015625
o16
o5
o1
v112
v116
n2
o2
o1
v112
v116
o1
v115
v116
v31
o16
o2
o2
o1
v112
v116
o1
v115
v116
v27
o2
n2
v162
o3
o0
o2
o0
n0.015625
o5
o1
v117
v114
n2
v30
o2
o54
3
n-0.015625
o16
o5
o1
v117
v114
n2
o2
o1
v117
v114
o1
v115
v114
v29
o2
n2
v165
o3
o54
3
o2
o5
o1
v112
v111
n2
v30
o16
o2
o2
o1
v115
v111
o1
v112
v111
v27
o2
o0
o16
o5
o1
v112
v111
n2
o2
o1
v115
v111
o1
v112
v111
v26
o2
n2
v161
o3
o2
o5
o1
v117
v118
n2
v30
o2
n2
v205
C26
o16
v206
V207 1 28
7 1
n0
V208 1 28
8 0.75
n0.125
V209 1 28
7 0.03125
n-0.015625
V210 1 28
8 0.03125
n-0.015625
V211 1 28
7 0.03125
n-0.015625
V212 0 28
o54
6
o3
o54
3
o2
o1
o54
3
n0.015625
o5
o1
v112
v116
n2
o5
o1
v115
v116
n2
o2
o2
n2
o1
v112
v116
o1
v115
v116
v31
o2
o54
3
n-0.015625
o16
o5
o1
v112
v116
n2
o2
o1
v112
v116
o1
v115
v116
v30
o2
o0
o16
o5
o1
v115
v116
n2
o2
o1
v112
v116
o1
v115
v116
v27
o2
n2
v162
o3
o2
o1
o54
3
n0.015625
o5
o1
v208
v116
n2
o5
o1
v207
v116
n2
o2
o2
n2
o1
v208
v116
o1
v207
v116
v31
o2
n2
v211
o3
o2
o0
n0.015625
o5
o1
v113
v207
n2
v31
o2
n2
v209
o3
o0
o2
o0
n0.015625
o5
o1
v118
v115
n2
v31
o2
o54
3
n-0.015625
o16
o5
o1
v118
v115
n2
o2
o1
v118
v115
o1
v116
v115
v30
o2
n2
v166
o3
o0
o2
o5
o1
v113
v112
n2
v31
o2
o0
o16
o5
o1
v113
v112
n2
o2
o1
v116
v112
o1
v113
v112
v27
o2
n2
v163
o3
o2
o5
o1
v118
v208
n2
v31
o2
n2
v210
C27
o16
v212
C28
n0
C29
n0
C30
n0
C31
n0
C32
n0
C33
n0
C34
n0
C35
n0
C36
n0
C37
n0
C38
n0
C39
n0
C40
n0
C41
n0
C42
n0
C43
n0
C44
n0
C45
n0
C46
n0
C47
n0
C48
n0
C49
n0
C50
n0
C51
n0
C52
n0
C53
n0
C54
n0.00625
C55
n0.0125
C56
n0.025
C57
n0.018750000000000003
C58
n0.0125
C59
n0.00625
C60
n0.00625
C61
n0.018750000000000003
C62
n0.0125
C63
n0.00625
C64
n0.00625
C65
n0.018750000000000003
C66
n0.0125
C67
n0.00625
C68
n0.00625
C69
n0.018750000000000003
C70
n0.0125
C71
n0.00625
C72
n0.00625
C73
n0.018750000000000003
C74
n0.0125
C75
n0.00625
C76
n0.00625
C77
n0.018750000000000003
C78
n0.0125
C79
n0.00625
C80
n0.00625
C81
n0.0125
C82
n0.025
C83
n0.018750000000000003
C84
n0.0125
C85
n0.00625
O0 0
n0
x9
0 1
1 1
2 1
3 1
4 1
5 1
6 1
7 1
8 1
r
4 0.0125
4 -0.015624999999999998
4 -0.015624999999999998
4 -0.015624999999999998
4 -0.01875
4 -0.015624999999999998
4 -0.015624999999999998
4 -0.015624999999999998
4 8.673617379884035e-19
4 -0.015624999999999998
4 -0.015624999999999998
4 -0.015624999999999998
4 8.673617379884035e-19
4 -0.015624999999999998
4 -0.015624999999999998
4 -0.015624999999999998
4 8.673617379884035e-19
4 -0.015624999999999998
4 -0.015624999999999998
4 -0.015624999999999998
4 -0.01875
4 -0.015624999999999998
4 -0.015624999999999998
4 -0.015624999999999998
4 0.0125
4 -0.015624999999999998
4 -0.015624999999999998
4 -0.015624999999999998
4 0.034375
4 0.034375
0 -0.375 0.375
0 -0.375 0.375
0 -0.375 0.375
0 -0.375 0.375
0 -0.375 0.375
0 -0.375 0.375
0 -0.375 0.375
0 -0.375 0.375
4 0.015624999999999998
4 0.028124999999999997
4 0.028124999999999997
4 -0.003125000000000001
4 -0.0031250000000000114
4 0.028124999999999997
4 0.009375
4 0.028124999999999997
4 0.009375
4 0.028124999999999997
4 0.009375
4 0.028124999999999997
4 -0.0031249999999999976
4 -0.003125000000000008
4 0.015624999999999998
4 0.028124999999999997
5 1 44
5 1 45
5 1 46
5 1 47
5 1 48
5 1 49
5 1 50
5 1 54
5 1 55
5 1 56
5 1 57
5 1 60
5 1 61
5 1 62
5 1 63
5 1 66
5 1 67
5 1 68
5 1 69
5 1 72
5 1 73
5 1 74
5 1 75
5 1 79
5 1 80
5 1 81
5 1 82
5 1 83
5 1 84
5 1 85
5 1 86
5 1 87
b
0 0.6 1
0 0.6 1
0 0.6 1
0 0.6 1
0 0.6 1
0 0.6 1
0 0.6 1
0 0.6 1
0 0.6 1
2 -0.025
3
3
3
3
3
3
3
3
3
3
3
3
3
3
3
3
3
3
2 -0.025
3
3
3
2 -0.00625
2 -0.0125
2 -0.018750000000000003
2 -0.00625
2 -0.00625
2 -0.00625
2 -0.00625
2 -0.00625
2 -0.00625
2 -0.0125
2 -0.018750000000000003
2 0
2 0
2 0
2 0
2 0
2 0
2 0
2 0
2 0
2 0
2 0
2 0
2 0
2 0
2 0
2 0
2 0
2 0
2 0
2 0
2 0
2 0
2 0
2 0
2 0
2 0
2 0
2 0
2 0
2 0
2 0
2 0
2 0
2 0
2 0
2 0
2 0
2 0
2 0
2 0
2 0
2 0
2 0
2 0
k86
5
18
34
50
66
82
98
110
114
119
125
131
136
144
152
158
166
174
180
188
196
202
210
218
224
232
240
246
252
258
264
268
272
277
281
286
291
296
301
306
310
315
319
320
321
322
323
324
325
326
327
328
329
330
331
332
333
334
335
336
337
338
339
340
341
342
343
344
345
346
347
348
349
350
351
352
353
354
355
356
357
358
359
360
361
362
J0 6
0 -0.005208333333333333
1 -0.010416666666666666
9 -2
10 0
34 1
45 1
J1 8
0 -0.005208333333333333
1 -0.020833333333333332
2 -0.005208333333333333
9 0
10 0
11 0
13 0
46 1
J2 9
0 -0.005208333333333333
1 -0.020833333333333332
2 -0.005208333333333333
10 0
11 0
12 0
13 0
14 0
47 1
J3 8
0 -0.005208333333333333
1 -0.020833333333333332
2 -0.005208333333333333
11 0
12 0
14 0
15 0
48 1
J4 6
1 -0.005208333333333333
2 -0.010416666666666666
9 0.5
10 0
13 0
52 1
J5 9
1 -0.005208333333333333
2 -0.020833333333333332
3 -0.005208333333333333
10 0
11 0
13 0
14 0
16 0
53 1
J6 11
1 -0.005208333333333333
2 -0.020833333333333332
3 -0.005208333333333333
11 0
12 0
13 0
14 0
15 0
16 0
17 0
54 1
J7 9
1 -0.005208333333333333
2 -0.020833333333333332
3 -0.005208333333333333
12 0
14 0
15 0
17 0
18 0
55 1
J8 5
2 -0.005208333333333333
3 -0.010416666666666666
13 0
16 0
58 1
J9 9
2 -0.005208333333333333
3 -0.020833333333333332
4 -0.005208333333333333
13 0
14 0
16 0
17 0
19 0
59 1
J10 11
2 -0.005208333333333333
3 -0.020833333333333332
4 -0.005208333333333333
14 0
15 0
16 0
17 0
18 0
19 0
20 0
60 1
J11 9
2 -0.005208333333333333
3 -0.020833333333333332
4 -0.005208333333333333
15 0
17 0
18 0
20 0
21 0
61 1
J12 5
3 -0.005208333333333333
4 -0.010416666666666666
16 0
19 0
64 1
J13 9
3 -0.005208333333333333
4 -0.020833333333333332
5 -0.005208333333333333
16 0
17 0
19 0
20 0
22 0
65 1
J14 11
3 -0.005208333333333333
4 -0.020833333333333332
5 -0.005208333333333333
17 0
18 0
19 0
20 0
21 0
22 0
23 0
66 1
J15 9
3 -0.005208333333333333
4 -0.020833333333333332
5 -0.005208333333333333
18 0
20 0
21 0
23 0
24 0
67 1
J16 5
4 -0.005208333333333333
5 -0.010416666666666666
19 0
22 0
70 1
J17 9
4 -0.005208333333333333
5 -0.020833333333333332
6 -0.005208333333333333
19 0
20 0
22 0
23 0
25 0
71 1
J18 11
4 -0.005208333333333333
5 -0.020833333333333332
6 -0.005208333333333333
20 0
21 0
22 0
23 0
24 0
25 0
26 0
72 1
J19 9
4 -0.005208333333333333
5 -0.020833333333333332
6 -0.005208333333333333
21 0
23 0
24 0
26 0
27 0
73 1
J20 6
5 -0.005208333333333333
6 -0.010416666666666666
22 0
25 0
28 0.5
77 1
J21 10
5 -0.005208333333333333
6 -0.020833333333333332
7 -0.005208333333333333
22 0
23 0
25 0
26 0
28 0
29 0
78 1
J22 11
5 -0.005208333333333333
6 -0.020833333333333332
7 -0.005208333333333333
23 0
24 0
25 0
26 0
27 0
29 0
30 0
79 1
J23 9
5 -0.005208333333333333
6 -0.020833333333333332
7 -0.005208333333333333
24 0
26 0
27 0
30 0
31 0
80 1
J24 7
6 -0.005208333333333333
7 -0.010416666666666666
25 0
28 -2
29 0
42 1
83 1
J25 9
6 -0.005208333333333333
7 -0.020833333333333332
8 -0.005208333333333333
25 0
26 0
28 0
29 0
30 0
84 1
J26 9
6 -0.005208333333333333
7 -0.020833333333333332
8 -0.005208333333333333
26 0
27 0
29 0
30 0
31 0
85 1
J27 7
6 -0.005208333333333333
7 -0.020833333333333332
8 -0.005208333333333333
27 0
30 0
31 0
86 1
J28 3
9 1
33 1
34 -4
J29 3
28 1
41 1
42 -4
J30 2
0 1
1 -1
J31 2
1 1
2 -1
J32 2
2 1
3 -1
J33 2
3 1
4 -1
J34 2
4 1
5 -1
J35 2
5 1
6 -1
J36 2
6 1
7 -1
J37 2
7 1
8 -1
J38 4
32 -4
33 1
35 1
43 1
J39 4
32 1
33 -4
34 1
44 1
J40 4
32 1
35 -4
36 1
49 1
J41 3
33 1
35 1
50 1
J42 2
34 1
51 1
J43 4
35 1
36 -4
37 1
56 1
J44 2
36 1
57 1
J45 4
36 1
37 -4
38 1
62 1
J46 2
37 1
63 1
J47 4
37 1
38 -4
39 1
68 1
J48 2
38 1
69 1
J49 4
38 1
39 -4
40 1
74 1
J50 3
39 1
41 1
75 1
J51 2
42 1
76 1
J52 4
39 1
40 -4
41 1
81 1
J53 4
40 1
41 -4
42 1
82 1
J54 1
32 1
J55 1
33 1
J56 1
9 1
J57 2
1 0.0125
10 1
J58 2
1 0.025
11 1
J59 2
1 0.037500000000000006
12 1
J60 1
35 1
J61 2
2 0.0125
13 1
J62 2
2 0.025
14 1
J63 2
2 0.037500000000000006
15 1
J64 1
36 1
J65 2
3 0.0125
16 1
J66 2
3 0.025
17 1
J67 2
3 0.037500000000000006
18 1
J68 1
37 1
J69 2
4 0.0125
19 1
J70 2
4 0.025
20 1
J71 2
4 0.037500000000000006
21 1
J72 1
38 1
J73 2
5 0.0125
22 1
J74 2
5 0.025
23 1
J75 2
5 0.037500000000000006
24 1
J76 1
39 1
J77 2
6 0.0125
25 1
J78 2
6 0.025
26 1
J79 2
6 0.037500000000000006
27 1
J80 1
40 1
J81 1
41 1
J82 1
28 1
J83 2
7 0.0125
29 1
J84 2
7 0.025
30 1
J85 2
7 0.037500000000000006
31 1
G0 9
0 0.0625
1 0.125
2 0.125
3 0.125
4 0.125
5 0.125
6 0.125
7 0.125
8 0.0625
